
%FILE DATA:	Soccer Computational Problem for MiniZinc Models	%
%AUTHOR:	Jack Wall	%
%CONTACT:  	116397063@umail.ucc.ie			%
%LAST UPDATE:	03/03/2020, 12:29:48						%
%DESCRIPTION: 	60 games played with 30 games left				%


n=10; %number of teams

%Games to play
games=[|7,8|8,2|1,10|10,9|5,6|9,6|3,2|6,10|2,5|4,7|7,9|1,2|8,9|2,8|2,9|10,2|3,1|8,10|2,1|3,9|5,2|9,3|5,9|1,3|9,7|6,4|4,3|6,3|5,7|9,5|];

%Initial points
iPoints=[22,14,7,18,20,21,24,18,7,12];

%POSITION CONSTRAINTS
% [|teamID, operator, position|...]
% operators index:
%  1 for =  operator
%  2 for >  operator
%  3 for >= operator
%  4 for <  operator
%  5 for <= operator
positionConstraints=[|2,1,1|1,4,3|6,1,3|5,2,3|7,5,5|];